benchmark/results/graph__15-1000-0.10-04_15/error_log/graph__15-1000-0.10-04_15_Quinton_Benders_primal_sub_ERRORLOG.lp
\ This file has been generated by DOcplex
\ ENCODING=ISO-8859-1
\Problem name: Quinton Benders_primal_sub

Maximize
 obj: tau
Subject To
 c1: tau <= 0.001046025105
 c2: y_a0_proc_0 + y_a0_proc_1 + y_a0_proc_2 - tau = 0
 c3: y_a0_proc_0 <= 0
 c4: y_a0_proc_1 <= 1
 c5: y_a0_proc_2 <= 0
 c6: tau <= 0.000881057269
 c7: y_a1_proc_0 + y_a1_proc_2 + y_a1_proc_3 - tau = 0
 c8: y_a1_proc_0 <= 0
 c9: y_a1_proc_2 <= 0
 c10: y_a1_proc_3 <= 1
 c11: tau <= 0.000859845228
 c12: y_a2_proc_1 + y_a2_proc_2 + y_a2_proc_3 - tau = 0
 c13: y_a2_proc_1 <= 1
 c14: y_a2_proc_2 <= 0
 c15: y_a2_proc_3 <= 0
 c16: tau <= 0.000859106529
 c17: y_a3_proc_1 + y_a3_proc_2 + y_a3_proc_3 - tau = 0
 c18: y_a3_proc_1 <= 1
 c19: y_a3_proc_2 <= 0
 c20: y_a3_proc_3 <= 0
 c21: tau <= 0.001980198020
 c22: y_a4_proc_0 + y_a4_proc_2 - tau = 0
 c23: y_a4_proc_0 <= 0
 c24: y_a4_proc_2 <= 1
 c25: tau <= 0.000843881857
 c26: y_a5_proc_0 + y_a5_proc_1 + y_a5_proc_2 - tau = 0
 c27: y_a5_proc_0 <= 0
 c28: y_a5_proc_1 <= 1
 c29: y_a5_proc_2 <= 0
 c30: tau <= 0.001492537313
 c31: y_a6_proc_1 + y_a6_proc_2 + y_a6_proc_3 - tau = 0
 c32: y_a6_proc_1 <= 1
 c33: y_a6_proc_2 <= 0
 c34: y_a6_proc_3 <= 0
 c35: tau <= 0.001122334456
 c36: y_a7_proc_0 + y_a7_proc_1 + y_a7_proc_3 - tau = 0
 c37: y_a7_proc_0 <= 1
 c38: y_a7_proc_1 <= 0
 c39: y_a7_proc_3 <= 0
 c40: tau <= 0.000865051903
 c41: y_a8_proc_0 + y_a8_proc_1 + y_a8_proc_2 + y_a8_proc_3 - tau = 0
 c42: y_a8_proc_0 <= 1
 c43: y_a8_proc_1 <= 0
 c44: y_a8_proc_2 <= 0
 c45: y_a8_proc_3 <= 0
 c46: tau <= 0.001234567901
 c47: y_a9_proc_0 + y_a9_proc_1 + y_a9_proc_3 - tau = 0
 c48: y_a9_proc_0 <= 0
 c49: y_a9_proc_1 <= 0
 c50: y_a9_proc_3 <= 1
 c51: tau <= 0.000896057348
 c52: y_a10_proc_0 + y_a10_proc_1 + y_a10_proc_2 + y_a10_proc_3 - tau = 0
 c53: y_a10_proc_0 <= 0
 c54: y_a10_proc_1 <= 0
 c55: y_a10_proc_2 <= 0
 c56: y_a10_proc_3 <= 1
 c57: tau <= 0.001468428781
 c58: y_a11_proc_0 + y_a11_proc_1 - tau = 0
 c59: y_a11_proc_0 <= 0
 c60: y_a11_proc_1 <= 1
 c61: tau <= 0.001615508885
 c62: y_a12_proc_0 + y_a12_proc_1 + y_a12_proc_3 - tau = 0
 c63: y_a12_proc_0 <= 0
 c64: y_a12_proc_1 <= 0
 c65: y_a12_proc_3 <= 1
 c66: tau <= 0.000801282051
 c67: y_a13_proc_0 + y_a13_proc_1 + y_a13_proc_2 + y_a13_proc_3 - tau = 0
 c68: y_a13_proc_0 <= 1
 c69: y_a13_proc_1 <= 0
 c70: y_a13_proc_2 <= 0
 c71: y_a13_proc_3 <= 0
 c72: tau <= 0.001597444089
 c73: y_a14_proc_1 + y_a14_proc_3 - tau = 0
 c74: y_a14_proc_1 <= 0
 c75: y_a14_proc_3 <= 1
 c76: u_a1 - u_a0 - 917 y_a0_proc_0 - 956 y_a0_proc_1 - 1221 y_a0_proc_2 >= -1
 c77: u_a2 - u_a1 - 1002 y_a1_proc_0 - 941 y_a1_proc_2 - 1135 y_a1_proc_3 >= 0
 c78: u_a0 - u_a3 - 1164 y_a3_proc_1 - 1080 y_a3_proc_2 - 857 y_a3_proc_3 >= 0
 c79: u_a1 - u_a4 - 1081 y_a4_proc_0 - 505 y_a4_proc_2 >= 0
 c80: u_a5 - u_a1 - 1002 y_a1_proc_0 - 941 y_a1_proc_2 - 1135 y_a1_proc_3 >= 0
 c81: u_a6 - u_a5 - 709 y_a5_proc_0 - 1185 y_a5_proc_1 - 1089 y_a5_proc_2 >= 0
 c82: u_a3 - u_a7 - 891 y_a7_proc_0 - 836 y_a7_proc_1 - 902 y_a7_proc_3 >= -1
 c83: u_a8 - u_a3 - 1164 y_a3_proc_1 - 1080 y_a3_proc_2 - 857 y_a3_proc_3 >= 0
 c84: u_a9 - u_a8 - 1156 y_a8_proc_0 - 1010 y_a8_proc_1 - 663 y_a8_proc_2
      - 557 y_a8_proc_3 >= -1
 c85: u_a4 - u_a10 - 1078 y_a10_proc_0 - 989 y_a10_proc_1 - 822 y_a10_proc_2
      - 1116 y_a10_proc_3 >= 0
 c86: u_a11 - u_a2 - 1163 y_a2_proc_1 - 1167 y_a2_proc_2 - 765 y_a2_proc_3 >= 0
 c87: u_a12 - u_a6 - 670 y_a6_proc_1 - 872 y_a6_proc_2 - 970 y_a6_proc_3 >= -1
 c88: u_a9 - u_a13 - 1248 y_a13_proc_0 - 568 y_a13_proc_1 - 1293 y_a13_proc_2
      - 1241 y_a13_proc_3 >= -1
 c89: u_a14 - u_a12 - 432 y_a12_proc_0 - 338 y_a12_proc_1 - 619 y_a12_proc_3
       >= -1
 c90: - 1078 y_a10_proc_0 - 989 y_a10_proc_1 - 822 y_a10_proc_2
      - 1116 y_a10_proc_3 >= -1
 c91: u_a3 - u_a9 - 1097 y_a9_proc_0 - 758 y_a9_proc_1 - 810 y_a9_proc_3 >= 0
 c92: u_a10 - u_a13 - 1248 y_a13_proc_0 - 568 y_a13_proc_1 - 1293 y_a13_proc_2
      - 1241 y_a13_proc_3 >= -1
 c93: u_a7 - u_a4 - 1081 y_a4_proc_0 - 505 y_a4_proc_2 >= 0
 c94: u_a14 - u_a9 - 1097 y_a9_proc_0 - 758 y_a9_proc_1 - 810 y_a9_proc_3 >= 0
 c95: u_a14 - u_a6 - 670 y_a6_proc_1 - 872 y_a6_proc_2 - 970 y_a6_proc_3 >= -1
 c96: u_a12 - u_a10 - 1078 y_a10_proc_0 - 989 y_a10_proc_1 - 822 y_a10_proc_2
      - 1116 y_a10_proc_3 >= 0
 c97: u_a4 - u_a6 - 670 y_a6_proc_1 - 872 y_a6_proc_2 - 970 y_a6_proc_3 >= -1
 c98: - 1248 y_a13_proc_0 - 568 y_a13_proc_1 - 1293 y_a13_proc_2
      - 1241 y_a13_proc_3 >= -1
 c99: u_a7 - u_a2 - 1163 y_a2_proc_1 - 1167 y_a2_proc_2 - 765 y_a2_proc_3 >= -1
 c100: u_a1 - u_a12 - 432 y_a12_proc_0 - 338 y_a12_proc_1 - 619 y_a12_proc_3
        >= 0
 c101: u_a13 - u_a14 - 987 y_a14_proc_1 - 626 y_a14_proc_3 >= 0
 c102: u_a3 - u_a8 - 1156 y_a8_proc_0 - 1010 y_a8_proc_1 - 663 y_a8_proc_2
       - 557 y_a8_proc_3 >= -1
 c103: u_a1 - u_a0 - 917 y_a0_proc_0 >= -5173
 c104: u_a1 - u_a0 - 1221 y_a0_proc_2 >= -5173
 c105: u_a0 - u_a1 - 1002 y_a1_proc_0 >= 0
 c106: u_a0 - u_a1 - 941 y_a1_proc_2 >= 0
 c107: u_a2 - u_a0 - 1221 y_a0_proc_2 >= -2586
 c108: u_a2 - u_a0 - 956 y_a0_proc_1 >= 0
 c109: u_a0 - u_a2 - 1167 y_a2_proc_2 >= -2587
 c110: u_a0 - u_a2 - 1163 y_a2_proc_1 >= -1
 c111: u_a3 - u_a0 - 1221 y_a0_proc_2 >= -2587
 c112: u_a3 - u_a0 - 956 y_a0_proc_1 >= -1
 c113: u_a0 - u_a3 - 1080 y_a3_proc_2 >= -2586
 c114: u_a0 - u_a3 - 1164 y_a3_proc_1 >= 0
 c115: u_a4 - u_a0 - 917 y_a0_proc_0 >= -3880
 c116: u_a4 - u_a0 - 1221 y_a0_proc_2 >= -2587
 c117: u_a0 - u_a4 - 1081 y_a4_proc_0 >= -1293
 c118: u_a0 - u_a4 - 505 y_a4_proc_2 >= 0
 c119: u_a5 - u_a0 - 917 y_a0_proc_0 >= -2587
 c120: u_a5 - u_a0 - 1221 y_a0_proc_2 >= -2587
 c121: u_a5 - u_a0 - 956 y_a0_proc_1 >= -1
 c122: u_a0 - u_a5 - 709 y_a5_proc_0 >= -2586
 c123: u_a0 - u_a5 - 1089 y_a5_proc_2 >= -2586
 c124: u_a0 - u_a5 - 1185 y_a5_proc_1 >= 0
 c125: u_a6 - u_a0 - 1221 y_a0_proc_2 >= -2587
 c126: u_a6 - u_a0 - 956 y_a0_proc_1 >= -1
 c127: u_a0 - u_a6 - 872 y_a6_proc_2 >= -2586
 c128: u_a0 - u_a6 - 670 y_a6_proc_1 >= 0
 c129: u_a7 - u_a0 - 917 y_a0_proc_0 >= -2587
 c130: u_a7 - u_a0 - 956 y_a0_proc_1 >= -2587
 c131: u_a0 - u_a7 - 891 y_a7_proc_0 >= 0
 c132: u_a0 - u_a7 - 836 y_a7_proc_1 >= 0
 c133: u_a8 - u_a0 - 917 y_a0_proc_0 >= -2587
 c134: u_a8 - u_a0 - 1221 y_a0_proc_2 >= -3880
 c135: u_a8 - u_a0 - 956 y_a0_proc_1 >= -2587
 c136: u_a0 - u_a8 - 1156 y_a8_proc_0 >= 0
 c137: u_a0 - u_a8 - 663 y_a8_proc_2 >= -1293
 c138: u_a0 - u_a8 - 1010 y_a8_proc_1 >= 0
 c139: u_a9 - u_a0 - 917 y_a0_proc_0 >= -3881
 c140: u_a9 - u_a0 - 956 y_a0_proc_1 >= -2588
 c141: u_a0 - u_a9 - 1097 y_a9_proc_0 >= -1292
 c142: u_a0 - u_a9 - 758 y_a9_proc_1 >= 1
 c143: u_a10 - u_a0 - 917 y_a0_proc_0 >= -3881
 c144: u_a10 - u_a0 - 1221 y_a0_proc_2 >= -3881
 c145: u_a10 - u_a0 - 956 y_a0_proc_1 >= -2588
 c146: u_a0 - u_a10 - 1078 y_a10_proc_0 >= -1292
 c147: u_a0 - u_a10 - 822 y_a10_proc_2 >= -1292
 c148: u_a0 - u_a10 - 989 y_a10_proc_1 >= 1
 c149: u_a11 - u_a0 - 917 y_a0_proc_0 >= 999996118
 c150: u_a11 - u_a0 - 956 y_a0_proc_1 >= 999998704
 c151: u_a0 - u_a11 - 1022 y_a11_proc_0 >= -1000001291
 c152: u_a0 - u_a11 - 681 y_a11_proc_1 >= -999998705
 c153: u_a12 - u_a0 - 917 y_a0_proc_0 >= -3880
 c154: u_a12 - u_a0 - 956 y_a0_proc_1 >= -2587
 c155: u_a0 - u_a12 - 432 y_a12_proc_0 >= -1293
 c156: u_a0 - u_a12 - 338 y_a12_proc_1 >= 0
 c157: u_a13 - u_a0 - 917 y_a0_proc_0 >= -2588
 c158: u_a13 - u_a0 - 1221 y_a0_proc_2 >= -3881
 c159: u_a13 - u_a0 - 956 y_a0_proc_1 >= -2588
 c160: u_a0 - u_a13 - 1248 y_a13_proc_0 >= 1
 c161: u_a0 - u_a13 - 1293 y_a13_proc_2 >= -1292
 c162: u_a0 - u_a13 - 568 y_a13_proc_1 >= 1
 c163: u_a14 - u_a0 - 956 y_a0_proc_1 >= -2588
 c164: u_a0 - u_a14 - 987 y_a14_proc_1 >= 1
 c165: u_a2 - u_a1 - 941 y_a1_proc_2 >= -3878
 c166: u_a2 - u_a1 - 1135 y_a1_proc_3 >= -2585
 c167: u_a1 - u_a2 - 1167 y_a2_proc_2 >= -1295
 c168: u_a1 - u_a2 - 765 y_a2_proc_3 >= -2
 c169: u_a3 - u_a1 - 941 y_a1_proc_2 >= -3879
 c170: u_a3 - u_a1 - 1135 y_a1_proc_3 >= -2586
 c171: u_a1 - u_a3 - 1080 y_a3_proc_2 >= -1294
 c172: u_a1 - u_a3 - 857 y_a3_proc_3 >= -1
 c173: u_a4 - u_a1 - 1002 y_a1_proc_0 >= -3880
 c174: u_a4 - u_a1 - 941 y_a1_proc_2 >= -2587
 c175: u_a1 - u_a4 - 1081 y_a4_proc_0 >= -1293
 c176: u_a1 - u_a4 - 505 y_a4_proc_2 >= 0
 c177: u_a5 - u_a1 - 1002 y_a1_proc_0 >= -5172
 c178: u_a5 - u_a1 - 941 y_a1_proc_2 >= -5172
 c179: u_a1 - u_a5 - 709 y_a5_proc_0 >= -1
 c180: u_a1 - u_a5 - 1089 y_a5_proc_2 >= -1
 c181: u_a6 - u_a1 - 941 y_a1_proc_2 >= -3879
 c182: u_a6 - u_a1 - 1135 y_a1_proc_3 >= -2586
 c183: u_a1 - u_a6 - 872 y_a6_proc_2 >= -1294
 c184: u_a1 - u_a6 - 970 y_a6_proc_3 >= -1
 c185: u_a7 - u_a1 - 1002 y_a1_proc_0 >= -2586
 c186: u_a7 - u_a1 - 1135 y_a1_proc_3 >= -2586
 c187: u_a1 - u_a7 - 891 y_a7_proc_0 >= -1
 c188: u_a1 - u_a7 - 902 y_a7_proc_3 >= -1
 c189: u_a8 - u_a1 - 1002 y_a1_proc_0 >= -2586
 c190: u_a8 - u_a1 - 941 y_a1_proc_2 >= -3879
 c191: u_a8 - u_a1 - 1135 y_a1_proc_3 >= -2586
 c192: u_a1 - u_a8 - 1156 y_a8_proc_0 >= -1
 c193: u_a1 - u_a8 - 663 y_a8_proc_2 >= -1294
 c194: u_a1 - u_a8 - 557 y_a8_proc_3 >= -1
 c195: u_a9 - u_a1 - 1002 y_a1_proc_0 >= -2587
 c196: u_a9 - u_a1 - 1135 y_a1_proc_3 >= -1
 c197: u_a1 - u_a9 - 1097 y_a9_proc_0 >= -2586
 c198: u_a1 - u_a9 - 810 y_a9_proc_3 >= 0
 c199: u_a10 - u_a1 - 1002 y_a1_proc_0 >= -2588
 c200: u_a10 - u_a1 - 941 y_a1_proc_2 >= -2588
 c201: u_a10 - u_a1 - 1135 y_a1_proc_3 >= -2
 c202: u_a1 - u_a10 - 1078 y_a10_proc_0 >= -2585
 c203: u_a1 - u_a10 - 822 y_a10_proc_2 >= -2585
 c204: u_a1 - u_a10 - 1116 y_a10_proc_3 >= 1
 c205: u_a11 - u_a1 - 1002 y_a1_proc_0 >= 999993533
 c206: u_a1 - u_a11 - 1022 y_a11_proc_0 >= -999998706
 c207: u_a12 - u_a1 - 1002 y_a1_proc_0 >= -2587
 c208: u_a12 - u_a1 - 1135 y_a1_proc_3 >= -1
 c209: u_a1 - u_a12 - 432 y_a12_proc_0 >= -2586
 c210: u_a1 - u_a12 - 619 y_a12_proc_3 >= 0
 c211: u_a13 - u_a1 - 1002 y_a1_proc_0 >= -2587
 c212: u_a13 - u_a1 - 941 y_a1_proc_2 >= -3880
 c213: u_a13 - u_a1 - 1135 y_a1_proc_3 >= -2587
 c214: u_a1 - u_a13 - 1248 y_a13_proc_0 >= 0
 c215: u_a1 - u_a13 - 1293 y_a13_proc_2 >= -1293
 c216: u_a1 - u_a13 - 1241 y_a13_proc_3 >= 0
 c217: u_a14 - u_a1 - 1135 y_a1_proc_3 >= -1
 c218: u_a1 - u_a14 - 626 y_a14_proc_3 >= 0
 c219: u_a3 - u_a2 - 1167 y_a2_proc_2 >= -2588
 c220: u_a3 - u_a2 - 765 y_a2_proc_3 >= -2588
 c221: u_a3 - u_a2 - 1163 y_a2_proc_1 >= -2
 c222: u_a2 - u_a3 - 1080 y_a3_proc_2 >= -2585
 c223: u_a2 - u_a3 - 857 y_a3_proc_3 >= -2585
 c224: u_a2 - u_a3 - 1164 y_a3_proc_1 >= 1
 c225: u_a4 - u_a2 - 1167 y_a2_proc_2 >= -2588
 c226: u_a2 - u_a4 - 505 y_a4_proc_2 >= 1
 c227: u_a5 - u_a2 - 1167 y_a2_proc_2 >= -2588
 c228: u_a5 - u_a2 - 1163 y_a2_proc_1 >= -2
 c229: u_a2 - u_a5 - 1089 y_a5_proc_2 >= -2585
 c230: u_a2 - u_a5 - 1185 y_a5_proc_1 >= 1
 c231: u_a6 - u_a2 - 1167 y_a2_proc_2 >= -2588
 c232: u_a6 - u_a2 - 765 y_a2_proc_3 >= -2588
 c233: u_a6 - u_a2 - 1163 y_a2_proc_1 >= -2
 c234: u_a2 - u_a6 - 872 y_a6_proc_2 >= -2585
 c235: u_a2 - u_a6 - 970 y_a6_proc_3 >= -2585
 c236: u_a2 - u_a6 - 670 y_a6_proc_1 >= 1
 c237: u_a7 - u_a2 - 765 y_a2_proc_3 >= -3880
 c238: u_a7 - u_a2 - 1163 y_a2_proc_1 >= -2587
 c239: u_a2 - u_a7 - 902 y_a7_proc_3 >= -1293
 c240: u_a2 - u_a7 - 836 y_a7_proc_1 >= 0
 c241: u_a8 - u_a2 - 1167 y_a2_proc_2 >= -1295
 c242: u_a8 - u_a2 - 765 y_a2_proc_3 >= -1295
 c243: u_a8 - u_a2 - 1163 y_a2_proc_1 >= -2
 c244: u_a2 - u_a8 - 663 y_a8_proc_2 >= -3878
 c245: u_a2 - u_a8 - 557 y_a8_proc_3 >= -3878
 c246: u_a2 - u_a8 - 1010 y_a8_proc_1 >= -2585
 c247: u_a9 - u_a2 - 765 y_a2_proc_3 >= -2589
 c248: u_a9 - u_a2 - 1163 y_a2_proc_1 >= -2589
 c249: u_a2 - u_a9 - 810 y_a9_proc_3 >= 2
 c250: u_a2 - u_a9 - 758 y_a9_proc_1 >= 2
 c251: u_a10 - u_a2 - 1167 y_a2_proc_2 >= -1296
 c252: u_a10 - u_a2 - 765 y_a2_proc_3 >= -3
 c253: u_a10 - u_a2 - 1163 y_a2_proc_1 >= -3
 c254: u_a2 - u_a10 - 822 y_a10_proc_2 >= -3877
 c255: u_a2 - u_a10 - 1116 y_a10_proc_3 >= -2584
 c256: u_a2 - u_a10 - 989 y_a10_proc_1 >= -2584
 c257: u_a11 - u_a2 - 1163 y_a2_proc_1 >= 999998703
 c258: u_a2 - u_a11 - 681 y_a11_proc_1 >= -999998704
 c259: u_a12 - u_a2 - 765 y_a2_proc_3 >= -2588
 c260: u_a12 - u_a2 - 1163 y_a2_proc_1 >= -2588
 c261: u_a2 - u_a12 - 619 y_a12_proc_3 >= 1
 c262: u_a2 - u_a12 - 338 y_a12_proc_1 >= 1
 c263: u_a13 - u_a2 - 1167 y_a2_proc_2 >= -3881
 c264: u_a13 - u_a2 - 765 y_a2_proc_3 >= -3881
 c265: u_a13 - u_a2 - 1163 y_a2_proc_1 >= -2588
 c266: u_a2 - u_a13 - 1293 y_a13_proc_2 >= -1292
 c267: u_a2 - u_a13 - 1241 y_a13_proc_3 >= -1292
 c268: u_a2 - u_a13 - 568 y_a13_proc_1 >= 1
 c269: u_a14 - u_a2 - 765 y_a2_proc_3 >= -2589
 c270: u_a14 - u_a2 - 1163 y_a2_proc_1 >= -2589
 c271: u_a2 - u_a14 - 626 y_a14_proc_3 >= 2
 c272: u_a2 - u_a14 - 987 y_a14_proc_1 >= 2
 c273: u_a4 - u_a3 - 1080 y_a3_proc_2 >= -2587
 c274: u_a3 - u_a4 - 505 y_a4_proc_2 >= 0
 c275: u_a5 - u_a3 - 1080 y_a3_proc_2 >= -2587
 c276: u_a5 - u_a3 - 1164 y_a3_proc_1 >= -1
 c277: u_a3 - u_a5 - 1089 y_a5_proc_2 >= -2586
 c278: u_a3 - u_a5 - 1185 y_a5_proc_1 >= 0
 c279: u_a6 - u_a3 - 1080 y_a3_proc_2 >= -2587
 c280: u_a6 - u_a3 - 857 y_a3_proc_3 >= -2587
 c281: u_a6 - u_a3 - 1164 y_a3_proc_1 >= -1
 c282: u_a3 - u_a6 - 872 y_a6_proc_2 >= -2586
 c283: u_a3 - u_a6 - 970 y_a6_proc_3 >= -2586
 c284: u_a3 - u_a6 - 670 y_a6_proc_1 >= 0
 c285: u_a7 - u_a3 - 857 y_a3_proc_3 >= -3879
 c286: u_a7 - u_a3 - 1164 y_a3_proc_1 >= -2586
 c287: u_a3 - u_a7 - 902 y_a7_proc_3 >= -1294
 c288: u_a3 - u_a7 - 836 y_a7_proc_1 >= -1
 c289: u_a8 - u_a3 - 1080 y_a3_proc_2 >= -3879
 c290: u_a8 - u_a3 - 857 y_a3_proc_3 >= -3879
 c291: u_a8 - u_a3 - 1164 y_a3_proc_1 >= -2586
 c292: u_a3 - u_a8 - 663 y_a8_proc_2 >= -1294
 c293: u_a3 - u_a8 - 557 y_a8_proc_3 >= -1294
 c294: u_a3 - u_a8 - 1010 y_a8_proc_1 >= -1
 c295: u_a9 - u_a3 - 857 y_a3_proc_3 >= -2587
 c296: u_a9 - u_a3 - 1164 y_a3_proc_1 >= -2587
 c297: u_a3 - u_a9 - 810 y_a9_proc_3 >= 0
 c298: u_a3 - u_a9 - 758 y_a9_proc_1 >= 0
 c299: u_a10 - u_a3 - 1080 y_a3_proc_2 >= -3881
 c300: u_a10 - u_a3 - 857 y_a3_proc_3 >= -2588
 c301: u_a10 - u_a3 - 1164 y_a3_proc_1 >= -2588
 c302: u_a3 - u_a10 - 822 y_a10_proc_2 >= -1292
 c303: u_a3 - u_a10 - 1116 y_a10_proc_3 >= 1
 c304: u_a3 - u_a10 - 989 y_a10_proc_1 >= 1
 c305: u_a11 - u_a3 - 1164 y_a3_proc_1 >= 999998705
 c306: u_a3 - u_a11 - 681 y_a11_proc_1 >= -999998706
 c307: u_a12 - u_a3 - 857 y_a3_proc_3 >= -2587
 c308: u_a12 - u_a3 - 1164 y_a3_proc_1 >= -2587
 c309: u_a3 - u_a12 - 619 y_a12_proc_3 >= 0
 c310: u_a3 - u_a12 - 338 y_a12_proc_1 >= 0
 c311: u_a13 - u_a3 - 1080 y_a3_proc_2 >= -3880
 c312: u_a13 - u_a3 - 857 y_a3_proc_3 >= -3880
 c313: u_a13 - u_a3 - 1164 y_a3_proc_1 >= -2587
 c314: u_a3 - u_a13 - 1293 y_a13_proc_2 >= -1293
 c315: u_a3 - u_a13 - 1241 y_a13_proc_3 >= -1293
 c316: u_a3 - u_a13 - 568 y_a13_proc_1 >= 0
 c317: u_a14 - u_a3 - 857 y_a3_proc_3 >= -2587
 c318: u_a14 - u_a3 - 1164 y_a3_proc_1 >= -2587
 c319: u_a3 - u_a14 - 626 y_a14_proc_3 >= 0
 c320: u_a3 - u_a14 - 987 y_a14_proc_1 >= 0
 c321: u_a5 - u_a4 - 1081 y_a4_proc_0 >= -3879
 c322: u_a5 - u_a4 - 505 y_a4_proc_2 >= -2586
 c323: u_a4 - u_a5 - 709 y_a5_proc_0 >= -1294
 c324: u_a4 - u_a5 - 1089 y_a5_proc_2 >= -1
 c325: u_a6 - u_a4 - 505 y_a4_proc_2 >= -2586
 c326: u_a4 - u_a6 - 872 y_a6_proc_2 >= -1
 c327: u_a7 - u_a4 - 1081 y_a4_proc_0 >= -2586
 c328: u_a4 - u_a7 - 891 y_a7_proc_0 >= -1
 c329: u_a8 - u_a4 - 1081 y_a4_proc_0 >= -2586
 c330: u_a8 - u_a4 - 505 y_a4_proc_2 >= -2586
 c331: u_a4 - u_a8 - 1156 y_a8_proc_0 >= -1
 c332: u_a4 - u_a8 - 663 y_a8_proc_2 >= -1
 c333: u_a9 - u_a4 - 1081 y_a4_proc_0 >= -5173
 c334: u_a4 - u_a9 - 1097 y_a9_proc_0 >= 0
 c335: u_a10 - u_a4 - 1081 y_a4_proc_0 >= -3881
 c336: u_a10 - u_a4 - 505 y_a4_proc_2 >= -2588
 c337: u_a4 - u_a10 - 1078 y_a10_proc_0 >= -1292
 c338: u_a4 - u_a10 - 822 y_a10_proc_2 >= 1
 c339: u_a11 - u_a4 - 1081 y_a4_proc_0 >= 999997413
 c340: u_a4 - u_a11 - 1022 y_a11_proc_0 >= -1000002586
 c341: u_a12 - u_a4 - 1081 y_a4_proc_0 >= -5172
 c342: u_a4 - u_a12 - 432 y_a12_proc_0 >= -1
 c343: u_a13 - u_a4 - 1081 y_a4_proc_0 >= -1
 c344: u_a13 - u_a4 - 505 y_a4_proc_2 >= -1
 c345: u_a4 - u_a13 - 1248 y_a13_proc_0 >= -2586
 c346: u_a4 - u_a13 - 1293 y_a13_proc_2 >= -2586
 c347: u_a6 - u_a5 - 1089 y_a5_proc_2 >= -2586
 c348: u_a6 - u_a5 - 1185 y_a5_proc_1 >= 0
 c349: u_a5 - u_a6 - 872 y_a6_proc_2 >= -2587
 c350: u_a5 - u_a6 - 670 y_a6_proc_1 >= -1
 c351: u_a7 - u_a5 - 709 y_a5_proc_0 >= -2586
 c352: u_a7 - u_a5 - 1185 y_a5_proc_1 >= -2586
 c353: u_a5 - u_a7 - 891 y_a7_proc_0 >= -1
 c354: u_a5 - u_a7 - 836 y_a7_proc_1 >= -1
 c355: u_a8 - u_a5 - 709 y_a5_proc_0 >= 0
 c356: u_a8 - u_a5 - 1089 y_a5_proc_2 >= -1293
 c357: u_a8 - u_a5 - 1185 y_a5_proc_1 >= 0
 c358: u_a5 - u_a8 - 1156 y_a8_proc_0 >= -2587
 c359: u_a5 - u_a8 - 663 y_a8_proc_2 >= -3880
 c360: u_a5 - u_a8 - 1010 y_a8_proc_1 >= -2587
 c361: u_a9 - u_a5 - 709 y_a5_proc_0 >= -3880
 c362: u_a9 - u_a5 - 1185 y_a5_proc_1 >= -2587
 c363: u_a5 - u_a9 - 1097 y_a9_proc_0 >= -1293
 c364: u_a5 - u_a9 - 758 y_a9_proc_1 >= 0
 c365: u_a10 - u_a5 - 709 y_a5_proc_0 >= -3881
 c366: u_a10 - u_a5 - 1089 y_a5_proc_2 >= -3881
 c367: u_a10 - u_a5 - 1185 y_a5_proc_1 >= -2588
 c368: u_a5 - u_a10 - 1078 y_a10_proc_0 >= -1292
 c369: u_a5 - u_a10 - 822 y_a10_proc_2 >= -1292
 c370: u_a5 - u_a10 - 989 y_a10_proc_1 >= 1
 c371: u_a11 - u_a5 - 709 y_a5_proc_0 >= 999996119
 c372: u_a11 - u_a5 - 1185 y_a5_proc_1 >= 999998705
 c373: u_a5 - u_a11 - 1022 y_a11_proc_0 >= -1000001292
 c374: u_a5 - u_a11 - 681 y_a11_proc_1 >= -999998706
 c375: u_a12 - u_a5 - 709 y_a5_proc_0 >= -3880
 c376: u_a12 - u_a5 - 1185 y_a5_proc_1 >= -2587
 c377: u_a5 - u_a12 - 432 y_a12_proc_0 >= -1293
 c378: u_a5 - u_a12 - 338 y_a12_proc_1 >= 0
 c379: u_a13 - u_a5 - 709 y_a5_proc_0 >= -2587
 c380: u_a13 - u_a5 - 1089 y_a5_proc_2 >= -3880
 c381: u_a13 - u_a5 - 1185 y_a5_proc_1 >= -2587
 c382: u_a5 - u_a13 - 1248 y_a13_proc_0 >= 0
 c383: u_a5 - u_a13 - 1293 y_a13_proc_2 >= -1293
 c384: u_a5 - u_a13 - 568 y_a13_proc_1 >= 0
 c385: u_a14 - u_a5 - 1185 y_a5_proc_1 >= -2587
 c386: u_a5 - u_a14 - 987 y_a14_proc_1 >= 0
 c387: u_a7 - u_a6 - 970 y_a6_proc_3 >= -3879
 c388: u_a7 - u_a6 - 670 y_a6_proc_1 >= -2586
 c389: u_a6 - u_a7 - 902 y_a7_proc_3 >= -1294
 c390: u_a6 - u_a7 - 836 y_a7_proc_1 >= -1
 c391: u_a8 - u_a6 - 872 y_a6_proc_2 >= -1293
 c392: u_a8 - u_a6 - 970 y_a6_proc_3 >= -1293
 c393: u_a8 - u_a6 - 670 y_a6_proc_1 >= 0
 c394: u_a6 - u_a8 - 663 y_a8_proc_2 >= -3880
 c395: u_a6 - u_a8 - 557 y_a8_proc_3 >= -3880
 c396: u_a6 - u_a8 - 1010 y_a8_proc_1 >= -2587
 c397: u_a9 - u_a6 - 970 y_a6_proc_3 >= -2587
 c398: u_a9 - u_a6 - 670 y_a6_proc_1 >= -2587
 c399: u_a6 - u_a9 - 810 y_a9_proc_3 >= 0
 c400: u_a6 - u_a9 - 758 y_a9_proc_1 >= 0
 c401: u_a10 - u_a6 - 872 y_a6_proc_2 >= -1295
 c402: u_a10 - u_a6 - 970 y_a6_proc_3 >= -2
 c403: u_a10 - u_a6 - 670 y_a6_proc_1 >= -2
 c404: u_a6 - u_a10 - 822 y_a10_proc_2 >= -3878
 c405: u_a6 - u_a10 - 1116 y_a10_proc_3 >= -2585
 c406: u_a6 - u_a10 - 989 y_a10_proc_1 >= -2585
 c407: u_a11 - u_a6 - 670 y_a6_proc_1 >= 999998705
 c408: u_a6 - u_a11 - 681 y_a11_proc_1 >= -999998706
 c409: u_a12 - u_a6 - 970 y_a6_proc_3 >= -2587
 c410: u_a12 - u_a6 - 670 y_a6_proc_1 >= -2587
 c411: u_a6 - u_a12 - 619 y_a12_proc_3 >= 0
 c412: u_a6 - u_a12 - 338 y_a12_proc_1 >= 0
 c413: u_a13 - u_a6 - 872 y_a6_proc_2 >= -3880
 c414: u_a13 - u_a6 - 970 y_a6_proc_3 >= -3880
 c415: u_a13 - u_a6 - 670 y_a6_proc_1 >= -2587
 c416: u_a6 - u_a13 - 1293 y_a13_proc_2 >= -1293
 c417: u_a6 - u_a13 - 1241 y_a13_proc_3 >= -1293
 c418: u_a6 - u_a13 - 568 y_a13_proc_1 >= 0
 c419: u_a14 - u_a6 - 970 y_a6_proc_3 >= -2587
 c420: u_a14 - u_a6 - 670 y_a6_proc_1 >= -2587
 c421: u_a6 - u_a14 - 626 y_a14_proc_3 >= 0
 c422: u_a6 - u_a14 - 987 y_a14_proc_1 >= 0
 c423: u_a8 - u_a7 - 891 y_a7_proc_0 >= -1
 c424: u_a8 - u_a7 - 902 y_a7_proc_3 >= -2587
 c425: u_a8 - u_a7 - 836 y_a7_proc_1 >= -2587
 c426: u_a7 - u_a8 - 1156 y_a8_proc_0 >= 0
 c427: u_a7 - u_a8 - 557 y_a8_proc_3 >= -2586
 c428: u_a7 - u_a8 - 1010 y_a8_proc_1 >= -2586
 c429: u_a9 - u_a7 - 891 y_a7_proc_0 >= -2588
 c430: u_a9 - u_a7 - 902 y_a7_proc_3 >= -2588
 c431: u_a9 - u_a7 - 836 y_a7_proc_1 >= -3881
 c432: u_a7 - u_a9 - 1097 y_a9_proc_0 >= 1
 c433: u_a7 - u_a9 - 810 y_a9_proc_3 >= 1
 c434: u_a7 - u_a9 - 758 y_a9_proc_1 >= -1292
 c435: u_a10 - u_a7 - 891 y_a7_proc_0 >= -2
 c436: u_a10 - u_a7 - 902 y_a7_proc_3 >= -2
 c437: u_a10 - u_a7 - 836 y_a7_proc_1 >= -1295
 c438: u_a7 - u_a10 - 1078 y_a10_proc_0 >= -2585
 c439: u_a7 - u_a10 - 1116 y_a10_proc_3 >= -2585
 c440: u_a7 - u_a10 - 989 y_a10_proc_1 >= -3878
 c441: u_a11 - u_a7 - 891 y_a7_proc_0 >= 999996118
 c442: u_a11 - u_a7 - 836 y_a7_proc_1 >= 999996118
 c443: u_a7 - u_a11 - 1022 y_a11_proc_0 >= -999998705
 c444: u_a7 - u_a11 - 681 y_a11_proc_1 >= -999998705
 c445: u_a12 - u_a7 - 891 y_a7_proc_0 >= -2587
 c446: u_a12 - u_a7 - 902 y_a7_proc_3 >= -2587
 c447: u_a12 - u_a7 - 836 y_a7_proc_1 >= -3880
 c448: u_a7 - u_a12 - 432 y_a12_proc_0 >= 0
 c449: u_a7 - u_a12 - 619 y_a12_proc_3 >= 0
 c450: u_a7 - u_a12 - 338 y_a12_proc_1 >= -1293
 c451: u_a13 - u_a7 - 891 y_a7_proc_0 >= -1
 c452: u_a13 - u_a7 - 902 y_a7_proc_3 >= -2587
 c453: u_a13 - u_a7 - 836 y_a7_proc_1 >= -2587
 c454: u_a7 - u_a13 - 1248 y_a13_proc_0 >= 0
 c455: u_a7 - u_a13 - 1241 y_a13_proc_3 >= -2586
 c456: u_a7 - u_a13 - 568 y_a13_proc_1 >= -2586
 c457: u_a14 - u_a7 - 902 y_a7_proc_3 >= -2588
 c458: u_a14 - u_a7 - 836 y_a7_proc_1 >= -3881
 c459: u_a7 - u_a14 - 626 y_a14_proc_3 >= 1
 c460: u_a7 - u_a14 - 987 y_a14_proc_1 >= -1292
 c461: u_a9 - u_a8 - 1156 y_a8_proc_0 >= -2587
 c462: u_a9 - u_a8 - 557 y_a8_proc_3 >= -2587
 c463: u_a9 - u_a8 - 1010 y_a8_proc_1 >= -3880
 c464: u_a8 - u_a9 - 1097 y_a9_proc_0 >= 0
 c465: u_a8 - u_a9 - 810 y_a9_proc_3 >= 0
 c466: u_a8 - u_a9 - 758 y_a9_proc_1 >= -1293
 c467: u_a10 - u_a8 - 1156 y_a8_proc_0 >= -2588
 c468: u_a10 - u_a8 - 663 y_a8_proc_2 >= -3881
 c469: u_a10 - u_a8 - 557 y_a8_proc_3 >= -2588
 c470: u_a10 - u_a8 - 1010 y_a8_proc_1 >= -3881
 c471: u_a8 - u_a10 - 1078 y_a10_proc_0 >= 1
 c472: u_a8 - u_a10 - 822 y_a10_proc_2 >= -1292
 c473: u_a8 - u_a10 - 1116 y_a10_proc_3 >= 1
 c474: u_a8 - u_a10 - 989 y_a10_proc_1 >= -1292
 c475: u_a11 - u_a8 - 1156 y_a8_proc_0 >= 999996119
 c476: u_a11 - u_a8 - 1010 y_a8_proc_1 >= 999996119
 c477: u_a8 - u_a11 - 1022 y_a11_proc_0 >= -999998706
 c478: u_a8 - u_a11 - 681 y_a11_proc_1 >= -999998706
 c479: u_a12 - u_a8 - 1156 y_a8_proc_0 >= -2587
 c480: u_a12 - u_a8 - 557 y_a8_proc_3 >= -2587
 c481: u_a12 - u_a8 - 1010 y_a8_proc_1 >= -3880
 c482: u_a8 - u_a12 - 432 y_a12_proc_0 >= 0
 c483: u_a8 - u_a12 - 619 y_a12_proc_3 >= 0
 c484: u_a8 - u_a12 - 338 y_a12_proc_1 >= -1293
 c485: u_a13 - u_a8 - 1156 y_a8_proc_0 >= -1
 c486: u_a13 - u_a8 - 663 y_a8_proc_2 >= -2587
 c487: u_a13 - u_a8 - 557 y_a8_proc_3 >= -2587
 c488: u_a13 - u_a8 - 1010 y_a8_proc_1 >= -2587
 c489: u_a8 - u_a13 - 1248 y_a13_proc_0 >= 0
 c490: u_a8 - u_a13 - 1293 y_a13_proc_2 >= -2586
 c491: u_a8 - u_a13 - 1241 y_a13_proc_3 >= -2586
 c492: u_a8 - u_a13 - 568 y_a13_proc_1 >= -2586
 c493: u_a14 - u_a8 - 557 y_a8_proc_3 >= -2587
 c494: u_a14 - u_a8 - 1010 y_a8_proc_1 >= -3880
 c495: u_a8 - u_a14 - 626 y_a14_proc_3 >= 0
 c496: u_a8 - u_a14 - 987 y_a14_proc_1 >= -1293
 c497: u_a10 - u_a9 - 1097 y_a9_proc_0 >= -2587
 c498: u_a10 - u_a9 - 810 y_a9_proc_3 >= -1
 c499: u_a10 - u_a9 - 758 y_a9_proc_1 >= -2587
 c500: u_a9 - u_a10 - 1078 y_a10_proc_0 >= -2586
 c501: u_a9 - u_a10 - 1116 y_a10_proc_3 >= 0
 c502: u_a9 - u_a10 - 989 y_a10_proc_1 >= -2586
 c503: u_a11 - u_a9 - 1097 y_a9_proc_0 >= 999994827
 c504: u_a11 - u_a9 - 758 y_a9_proc_1 >= 999996120
 c505: u_a9 - u_a11 - 1022 y_a11_proc_0 >= -1000000000
 c506: u_a9 - u_a11 - 681 y_a11_proc_1 >= -999998707
 c507: u_a12 - u_a9 - 1097 y_a9_proc_0 >= -2586
 c508: u_a12 - u_a9 - 810 y_a9_proc_3 >= 0
 c509: u_a12 - u_a9 - 758 y_a9_proc_1 >= -2586
 c510: u_a9 - u_a12 - 432 y_a12_proc_0 >= -2587
 c511: u_a9 - u_a12 - 619 y_a12_proc_3 >= -1
 c512: u_a9 - u_a12 - 338 y_a12_proc_1 >= -2587
 c513: u_a13 - u_a9 - 1097 y_a9_proc_0 >= -2586
 c514: u_a13 - u_a9 - 810 y_a9_proc_3 >= -2586
 c515: u_a13 - u_a9 - 758 y_a9_proc_1 >= -3879
 c516: u_a9 - u_a13 - 1248 y_a13_proc_0 >= -1
 c517: u_a9 - u_a13 - 1241 y_a13_proc_3 >= -1
 c518: u_a9 - u_a13 - 568 y_a13_proc_1 >= -1294
 c519: u_a14 - u_a9 - 810 y_a9_proc_3 >= 0
 c520: u_a14 - u_a9 - 758 y_a9_proc_1 >= -2586
 c521: u_a9 - u_a14 - 626 y_a14_proc_3 >= -1
 c522: u_a9 - u_a14 - 987 y_a14_proc_1 >= -2587
 c523: u_a11 - u_a10 - 1078 y_a10_proc_0 >= 999994827
 c524: u_a11 - u_a10 - 989 y_a10_proc_1 >= 999996120
 c525: u_a10 - u_a11 - 1022 y_a11_proc_0 >= -1000000000
 c526: u_a10 - u_a11 - 681 y_a11_proc_1 >= -999998707
 c527: u_a12 - u_a10 - 1078 y_a10_proc_0 >= -2585
 c528: u_a12 - u_a10 - 1116 y_a10_proc_3 >= 1
 c529: u_a12 - u_a10 - 989 y_a10_proc_1 >= -2585
 c530: u_a10 - u_a12 - 432 y_a12_proc_0 >= -2588
 c531: u_a10 - u_a12 - 619 y_a12_proc_3 >= -2
 c532: u_a10 - u_a12 - 338 y_a12_proc_1 >= -2588
 c533: u_a13 - u_a10 - 1078 y_a10_proc_0 >= -2586
 c534: u_a13 - u_a10 - 822 y_a10_proc_2 >= -3879
 c535: u_a13 - u_a10 - 1116 y_a10_proc_3 >= -2586
 c536: u_a13 - u_a10 - 989 y_a10_proc_1 >= -3879
 c537: u_a10 - u_a13 - 1248 y_a13_proc_0 >= -1
 c538: u_a10 - u_a13 - 1293 y_a13_proc_2 >= -1294
 c539: u_a10 - u_a13 - 1241 y_a13_proc_3 >= -1
 c540: u_a10 - u_a13 - 568 y_a13_proc_1 >= -1294
 c541: u_a14 - u_a10 - 1116 y_a10_proc_3 >= 0
 c542: u_a14 - u_a10 - 989 y_a10_proc_1 >= -2586
 c543: u_a10 - u_a14 - 626 y_a14_proc_3 >= -1
 c544: u_a10 - u_a14 - 987 y_a14_proc_1 >= -2587
 c545: u_a12 - u_a11 - 1022 y_a11_proc_0 >= -1000002585
 c546: u_a12 - u_a11 - 681 y_a11_proc_1 >= -1000001292
 c547: u_a11 - u_a12 - 432 y_a12_proc_0 >= 999997412
 c548: u_a11 - u_a12 - 338 y_a12_proc_1 >= 999998705
 c549: u_a13 - u_a11 - 1022 y_a11_proc_0 >= -1000001292
 c550: u_a13 - u_a11 - 681 y_a11_proc_1 >= -1000001292
 c551: u_a11 - u_a13 - 1248 y_a13_proc_0 >= 999998705
 c552: u_a11 - u_a13 - 568 y_a13_proc_1 >= 999998705
 c553: u_a14 - u_a11 - 681 y_a11_proc_1 >= -1000001293
 c554: u_a11 - u_a14 - 987 y_a14_proc_1 >= 999998706
 c555: u_a13 - u_a12 - 432 y_a12_proc_0 >= -2587
 c556: u_a13 - u_a12 - 619 y_a12_proc_3 >= -2587
 c557: u_a13 - u_a12 - 338 y_a12_proc_1 >= -3880
 c558: u_a12 - u_a13 - 1248 y_a13_proc_0 >= 0
 c559: u_a12 - u_a13 - 1241 y_a13_proc_3 >= 0
 c560: u_a12 - u_a13 - 568 y_a13_proc_1 >= -1293
 c561: u_a14 - u_a12 - 619 y_a12_proc_3 >= -1
 c562: u_a14 - u_a12 - 338 y_a12_proc_1 >= -2587
 c563: u_a12 - u_a14 - 626 y_a14_proc_3 >= 0
 c564: u_a12 - u_a14 - 987 y_a14_proc_1 >= -2586
 c565: u_a14 - u_a13 - 1241 y_a13_proc_3 >= -2587
 c566: u_a14 - u_a13 - 568 y_a13_proc_1 >= -3880
 c567: u_a13 - u_a14 - 626 y_a14_proc_3 >= 0
 c568: u_a13 - u_a14 - 987 y_a14_proc_1 >= -1293

Bounds
End
